46 14 
80 69 
61 44 
22 99 
61 70 
38 82 
49 77 
87 71 
28 53 
74 1 
12 51 
5 17 
12 63 
58 5 
15 82 
39 62 
48 20 
31 9 
64 5 
8 25 
27 99 
7 29 
76 94 
0 56 
0 26 
57 64 
77 15 
81 41 
78 91 
98 93 
25 38 
7 73 
58 90 
83 74 
95 43 
99 75 
94 59 
4 70 
5 4 
26 5 
31 36 
21 60 
51 55 
2 81 
46 52 
26 72 
90 34 
45 0 
24 80 
74 72 
